47
1 0 17
2 0 16
2 1 22
3 0 23
3 1 23
3 2 21
4 0 36
4 1 36
4 2 32
4 3 10
5 0 17
5 1 36
5 2 4
5 3 14
5 4 1
6 0 5
6 1 24
6 2 21
6 3 24
6 4 15
6 5 24
7 0 11
7 1 2
7 2 28
7 3 32
7 4 25
7 5 31
7 6 18
8 0 17
8 1 24
8 2 21
8 3 11
8 4 15
8 5 7
8 6 18
8 7 27
9 0 34
9 1 10
9 2 1
9 3 24
9 4 35
9 5 28
9 6 18
9 7 1
9 8 37
10 0 18
10 1 21
10 2 11
10 3 6
10 4 8
10 5 36
10 6 19
10 7 9
10 8 12
10 9 8
11 0 25
11 1 15
11 2 6
11 3 33
11 4 36
11 5 5
11 6 25
11 7 24
11 8 32
11 9 13
11 10 22
12 0 20
12 1 16
12 2 7
12 3 18
12 4 27
12 5 9
12 6 2
12 7 5
12 8 29
12 9 19
12 10 14
12 11 6
13 0 26
13 1 22
13 2 12
13 3 11
13 4 21
13 5 35
13 6 1
13 7 35
13 8 28
13 9 7
13 10 5
13 11 16
13 12 25
14 0 26
14 1 16
14 2 9
14 3 21
14 4 5
14 5 18
14 6 20
14 7 2
14 8 18
14 9 27
14 10 13
14 11 8
14 12 1
14 13 18
15 0 31
15 1 19
15 2 29
15 3 19
15 4 31
15 5 31
15 6 22
15 7 20
15 8 11
15 9 18
15 10 3
15 11 22
15 12 15
15 13 30
15 14 25
16 0 2
16 1 27
16 2 28
16 3 34
16 4 30
16 5 13
16 6 30
16 7 13
16 8 4
16 9 37
16 10 33
16 11 37
16 12 27
16 13 22
16 14 5
16 15 8
17 0 23
17 1 30
17 2 24
17 3 2
17 4 13
17 5 14
17 6 35
17 7 33
17 8 22
17 9 18
17 10 10
17 11 31
17 12 37
17 13 11
17 14 2
17 15 31
17 16 28
18 0 15
18 1 22
18 2 35
18 3 34
18 4 3
18 5 10
18 6 2
18 7 10
18 8 13
18 9 5
18 10 26
18 11 7
18 12 36
18 13 18
18 14 13
18 15 36
18 16 24
18 17 36
19 0 28
19 1 14
19 2 17
19 3 11
19 4 17
19 5 20
19 6 8
19 7 18
19 8 31
19 9 15
19 10 29
19 11 11
19 12 24
19 13 10
19 14 6
19 15 5
19 16 16
19 17 8
19 18 37
20 0 1
20 1 8
20 2 24
20 3 24
20 4 33
20 5 10
20 6 25
20 7 14
20 8 17
20 9 20
20 10 28
20 11 35
20 12 25
20 13 30
20 14 10
20 15 26
20 16 9
20 17 34
20 18 13
20 19 2
21 0 28
21 1 31
21 2 35
21 3 32
21 4 17
21 5 33
21 6 26
21 7 14
21 8 30
21 9 23
21 10 30
21 11 8
21 12 4
21 13 25
21 14 8
21 15 34
21 16 3
21 17 19
21 18 4
21 19 9
21 20 3
22 0 30
22 1 27
22 2 24
22 3 9
22 4 35
22 5 28
22 6 6
22 7 36
22 8 29
22 9 28
22 10 10
22 11 11
22 12 32
22 13 18
22 14 27
22 15 9
22 16 12
22 17 8
22 18 12
22 19 5
22 20 28
22 21 10
23 0 33
23 1 14
23 2 10
23 3 6
23 4 16
23 5 11
23 6 30
23 7 17
23 8 28
23 9 7
23 10 8
23 11 2
23 12 7
23 13 10
23 14 33
23 15 15
23 16 14
23 17 13
23 18 32
23 19 1
23 20 37
23 21 34
23 22 23
24 0 14
24 1 33
24 2 35
24 3 37
24 4 24
24 5 16
24 6 22
24 7 6
24 8 11
24 9 15
24 10 4
24 11 9
24 12 21
24 13 37
24 14 16
24 15 8
24 16 25
24 17 7
24 18 1
24 19 12
24 20 37
24 21 33
24 22 2
24 23 26
25 0 12
25 1 32
25 2 25
25 3 15
25 4 30
25 5 17
25 6 23
25 7 24
25 8 12
25 9 24
25 10 9
25 11 19
25 12 13
25 13 26
25 14 15
25 15 25
25 16 25
25 17 23
25 18 1
25 19 15
25 20 10
25 21 6
25 22 23
25 23 32
25 24 14
26 0 5
26 1 3
26 2 14
26 3 27
26 4 7
26 5 22
26 6 4
26 7 2
26 8 9
26 9 16
26 10 14
26 11 28
26 12 17
26 13 19
26 14 27
26 15 1
26 16 9
26 17 35
26 18 12
26 19 37
26 20 32
26 21 9
26 22 35
26 23 32
26 24 9
26 25 33
27 0 20
27 1 19
27 2 23
27 3 31
27 4 9
27 5 22
27 6 29
27 7 35
27 8 22
27 9 3
27 10 33
27 11 11
27 12 24
27 13 11
27 14 20
27 15 3
27 16 32
27 17 17
27 18 14
27 19 19
27 20 4
27 21 3
27 22 7
27 23 29
27 24 35
27 25 12
27 26 24
28 0 3
28 1 22
28 2 35
28 3 2
28 4 11
28 5 22
28 6 33
28 7 16
28 8 34
28 9 15
28 10 25
28 11 11
28 12 37
28 13 15
28 14 14
28 15 20
28 16 24
28 17 4
28 18 23
28 19 23
28 20 32
28 21 11
28 22 7
28 23 26
28 24 8
28 25 26
28 26 27
28 27 19
29 0 10
29 1 14
29 2 35
29 3 7
29 4 37
29 5 20
29 6 11
29 7 7
29 8 22
29 9 37
29 10 1
29 11 11
29 12 3
29 13 10
29 14 35
29 15 35
29 16 9
29 17 34
29 18 7
29 19 24
29 20 6
29 21 25
29 22 15
29 23 9
29 24 23
29 25 25
29 26 23
29 27 7
29 28 19
30 0 20
30 1 23
30 2 4
30 3 14
30 4 11
30 5 2
30 6 6
30 7 32
30 8 12
30 9 15
30 10 16
30 11 19
30 12 34
30 13 14
30 14 30
30 15 35
30 16 35
30 17 20
30 18 19
30 19 3
30 20 34
30 21 4
30 22 34
30 23 2
30 24 11
30 25 18
30 26 18
30 27 18
30 28 34
30 29 25
31 0 6
31 1 22
31 2 34
31 3 22
31 4 35
31 5 11
31 6 11
31 7 13
31 8 7
31 9 7
31 10 15
31 11 25
31 12 17
31 13 1
31 14 22
31 15 1
31 16 31
31 17 5
31 18 1
31 19 7
31 20 19
31 21 2
31 22 14
31 23 21
31 24 25
31 25 4
31 26 35
31 27 37
31 28 1
31 29 25
31 30 4
32 0 10
32 1 28
32 2 19
32 3 25
32 4 17
32 5 14
32 6 14
32 7 9
32 8 25
32 9 2
32 10 34
32 11 12
32 12 6
32 13 8
32 14 3
32 15 20
32 16 15
32 17 26
32 18 4
32 19 28
32 20 1
32 21 18
32 22 24
32 23 26
32 24 20
32 25 36
32 26 13
32 27 32
32 28 5
32 29 13
32 30 13
32 31 30
33 0 5
33 1 12
33 2 3
33 3 23
33 4 30
33 5 18
33 6 29
33 7 20
33 8 33
33 9 36
33 10 5
33 11 3
33 12 14
33 13 4
33 14 18
33 15 34
33 16 7
33 17 17
33 18 1
33 19 17
33 20 11
33 21 10
33 22 4
33 23 31
33 24 16
33 25 37
33 26 33
33 27 34
33 28 35
33 29 3
33 30 12
33 31 12
33 32 19
34 0 20
34 1 27
34 2 24
34 3 29
34 4 9
34 5 8
34 6 16
34 7 21
34 8 33
34 9 35
34 10 17
34 11 4
34 12 11
34 13 20
34 14 28
34 15 36
34 16 12
34 17 15
34 18 26
34 19 7
34 20 11
34 21 7
34 22 29
34 23 29
34 24 11
34 25 27
34 26 30
34 27 3
34 28 9
34 29 33
34 30 36
34 31 2
34 32 32
34 33 2
35 0 3
35 1 30
35 2 31
35 3 34
35 4 6
35 5 32
35 6 29
35 7 7
35 8 7
35 9 4
35 10 37
35 11 34
35 12 7
35 13 4
35 14 28
35 15 37
35 16 24
35 17 22
35 18 34
35 19 35
35 20 28
35 21 1
35 22 5
35 23 19
35 24 13
35 25 23
35 26 23
35 27 21
35 28 13
35 29 20
35 30 24
35 31 32
35 32 37
35 33 16
35 34 37
36 0 8
36 1 17
36 2 11
36 3 35
36 4 7
36 5 10
36 6 35
36 7 29
36 8 16
36 9 33
36 10 18
36 11 33
36 12 20
36 13 12
36 14 34
36 15 21
36 16 17
36 17 18
36 18 13
36 19 22
36 20 9
36 21 32
36 22 32
36 23 31
36 24 33
36 25 25
36 26 23
36 27 20
36 28 27
36 29 15
36 30 4
36 31 10
36 32 16
36 33 22
36 34 16
36 35 8
37 0 25
37 1 11
37 2 29
37 3 30
37 4 29
37 5 7
37 6 10
37 7 26
37 8 17
37 9 32
37 10 31
37 11 6
37 12 27
37 13 16
37 14 18
37 15 3
37 16 8
37 17 10
37 18 37
37 19 34
37 20 7
37 21 36
37 22 26
37 23 28
37 24 35
37 25 24
37 26 35
37 27 9
37 28 24
37 29 33
37 30 28
37 31 11
37 32 14
37 33 26
37 34 6
37 35 6
37 36 16
38 0 16
38 1 27
38 2 14
38 3 29
38 4 30
38 5 4
38 6 10
38 7 14
38 8 8
38 9 14
38 10 18
38 11 24
38 12 21
38 13 3
38 14 11
38 15 15
38 16 19
38 17 22
38 18 11
38 19 8
38 20 21
38 21 19
38 22 31
38 23 17
38 24 30
38 25 15
38 26 1
38 27 36
38 28 2
38 29 27
38 30 2
38 31 8
38 32 10
38 33 36
38 34 22
38 35 32
38 36 17
38 37 9
39 0 21
39 1 16
39 2 29
39 3 1
39 4 15
39 5 20
39 6 36
39 7 22
39 8 13
39 9 31
39 10 34
39 11 15
39 12 9
39 13 17
39 14 35
39 15 21
39 16 25
39 17 28
39 18 12
39 19 37
39 20 26
39 21 28
39 22 12
39 23 3
39 24 6
39 25 11
39 26 33
39 27 29
39 28 27
39 29 4
39 30 2
39 31 19
39 32 33
39 33 3
39 34 26
39 35 12
39 36 22
39 37 17
39 38 9
40 0 15
40 1 15
40 2 33
40 3 20
40 4 10
40 5 4
40 6 21
40 7 20
40 8 33
40 9 10
40 10 21
40 11 7
40 12 13
40 13 11
40 14 17
40 15 5
40 16 19
40 17 36
40 18 31
40 19 15
40 20 13
40 21 7
40 22 32
40 23 2
40 24 16
40 25 25
40 26 22
40 27 18
40 28 29
40 29 3
40 30 10
40 31 1
40 32 16
40 33 11
40 34 35
40 35 26
40 36 7
40 37 2
40 38 8
40 39 24
41 0 4
41 1 10
41 2 27
41 3 9
41 4 12
41 5 29
41 6 3
41 7 6
41 8 30
41 9 34
41 10 31
41 11 36
41 12 5
41 13 26
41 14 4
41 15 20
41 16 31
41 17 9
41 18 34
41 19 32
41 20 10
41 21 22
41 22 37
41 23 1
41 24 20
41 25 17
41 26 3
41 27 2
41 28 25
41 29 6
41 30 24
41 31 5
41 32 14
41 33 34
41 34 30
41 35 23
41 36 21
41 37 12
41 38 21
41 39 10
41 40 37
42 0 28
42 1 33
42 2 8
42 3 18
42 4 21
42 5 10
42 6 13
42 7 16
42 8 36
42 9 21
42 10 36
42 11 34
42 12 25
42 13 18
42 14 12
42 15 6
42 16 10
42 17 31
42 18 26
42 19 27
42 20 28
42 21 17
42 22 34
42 23 7
42 24 4
42 25 27
42 26 5
42 27 11
42 28 28
42 29 25
42 30 32
42 31 7
42 32 30
42 33 35
42 34 15
42 35 23
42 36 36
42 37 37
42 38 16
42 39 27
42 40 26
42 41 15
43 0 31
43 1 27
43 2 4
43 3 13
43 4 28
43 5 8
43 6 13
43 7 1
43 8 26
43 9 15
43 10 27
43 11 11
43 12 4
43 13 7
43 14 33
43 15 26
43 16 17
43 17 4
43 18 25
43 19 26
43 20 7
43 21 12
43 22 11
43 23 6
43 24 30
43 25 9
43 26 7
43 27 37
43 28 7
43 29 27
43 30 33
43 31 14
43 32 14
43 33 20
43 34 6
43 35 20
43 36 1
43 37 32
43 38 30
43 39 21
43 40 5
43 41 28
43 42 23
44 0 29
44 1 13
44 2 36
44 3 20
44 4 32
44 5 17
44 6 27
44 7 28
44 8 11
44 9 19
44 10 35
44 11 20
44 12 23
44 13 36
44 14 16
44 15 1
44 16 25
44 17 22
44 18 27
44 19 1
44 20 12
44 21 35
44 22 25
44 23 31
44 24 12
44 25 5
44 26 9
44 27 19
44 28 6
44 29 19
44 30 22
44 31 7
44 32 7
44 33 4
44 34 29
44 35 36
44 36 7
44 37 18
44 38 28
44 39 5
44 40 10
44 41 23
44 42 37
44 43 12
45 0 4
45 1 36
45 2 14
45 3 34
45 4 4
45 5 23
45 6 6
45 7 28
45 8 27
45 9 18
45 10 30
45 11 4
45 12 36
45 13 20
45 14 11
45 15 18
45 16 5
45 17 2
45 18 7
45 19 18
45 20 9
45 21 34
45 22 15
45 23 37
45 24 6
45 25 24
45 26 22
45 27 20
45 28 12
45 29 30
45 30 21
45 31 5
45 32 33
45 33 25
45 34 6
45 35 12
45 36 24
45 37 18
45 38 11
45 39 14
45 40 22
45 41 30
45 42 23
45 43 14
45 44 21
46 0 22
46 1 17
46 2 37
46 3 8
46 4 33
46 5 3
46 6 5
46 7 34
46 8 25
46 9 29
46 10 23
46 11 24
46 12 2
46 13 1
46 14 28
46 15 29
46 16 15
46 17 28
46 18 16
46 19 23
46 20 2
46 21 19
46 22 36
46 23 31
46 24 32
46 25 2
46 26 33
46 27 3
46 28 34
46 29 29
46 30 19
46 31 26
46 32 23
46 33 24
46 34 37
46 35 11
46 36 14
46 37 36
46 38 29
46 39 9
46 40 36
46 41 1
46 42 8
46 43 23
46 44 4
46 45 6
